LED/led_1.lp
Minimize
x0 + x1 + x2 + x3 + x4 + x5 + x6 + x7 + x8 + x9 + x10 + x11 + x12 + x13 + x14 + x15 + 
Subject To
\\AddConstants
\\SBOX
\\SBOX
\\SBOX
\\SBOX
\\SBOX
\\SBOX
\\SBOX
\\SBOX
\\SBOX
\\SBOX
\\SBOX
\\SBOX
\\SBOX
\\SBOX
\\SBOX
\\SBOX
\\Identity
\\Identity
\\Identity
\\Identity
\\Identity
\\Identity
\\Identity
\\Identity
\\Identity
\\Identity
\\Identity
\\Identity
\\Identity
\\Identity
\\Identity
\\Identity
\\GFColumnMultiplication
x0 + x5 + x10 + x15 + x16 + x17 + x18 + x19 - 5 d0 >= 0
d0 - x0 >= 0
d0 - x5 >= 0
d0 - x10 >= 0
d0 - x15 >= 0
d0 - x16 >= 0
d0 - x17 >= 0
d0 - x18 >= 0
d0 - x19 >= 0
\\GFColumnMultiplication
x4 + x9 + x14 + x3 + x20 + x21 + x22 + x23 - 5 d1 >= 0
d1 - x4 >= 0
d1 - x9 >= 0
d1 - x14 >= 0
d1 - x3 >= 0
d1 - x20 >= 0
d1 - x21 >= 0
d1 - x22 >= 0
d1 - x23 >= 0
\\GFColumnMultiplication
x8 + x13 + x2 + x7 + x24 + x25 + x26 + x27 - 5 d2 >= 0
d2 - x8 >= 0
d2 - x13 >= 0
d2 - x2 >= 0
d2 - x7 >= 0
d2 - x24 >= 0
d2 - x25 >= 0
d2 - x26 >= 0
d2 - x27 >= 0
\\GFColumnMultiplication
x12 + x1 + x6 + x11 + x28 + x29 + x30 + x31 - 5 d3 >= 0
d3 - x12 >= 0
d3 - x1 >= 0
d3 - x6 >= 0
d3 - x11 >= 0
d3 - x28 >= 0
d3 - x29 >= 0
d3 - x30 >= 0
d3 - x31 >= 0
x0 + x1 + x2 + x3 + x4 + x5 + x6 + x7 + x8 + x9 + x10 + x11 + x12 + x13 + x14 + x15 >= 1

Binary
d0
d1
d2
d3
x0
x1
x2
x3
x4
x5
x6
x7
x8
x9
x10
x11
x12
x13
x14
x15
x16
x17
x18
x19
x20
x21
x22
x23
x24
x25
x26
x27
x28
x29
x30
x31
End